1, 17, 26, 31, 25, 44, 47, 45, 46, 37, 24, 32, 36, 1
1, 30, 23, 29, 28, 27, 21, 22, 53, 52, 15, 16, 2, 14, 1
1, 34, 35, 39, 42, 43, 51, 50, 48, 49, 41, 40, 38, 33, 20, 1
1, 18, 3, 7, 4, 6, 5, 8, 13, 9, 12, 11, 10, 19, 1
